NAME : rnd30_50.tsp.tsp.opt.tour
TYPE : TOUR
DIMENSION : 50
TOUR_SECTION
1
8
45
50
31
9
16
20
40
7
3
36
25
27
4
43
35
48
32
37
5
30
34
23
13
12
24
15
39
28
41
42
17
46
10
11
33
29
47
49
19
14
22
6
21
2
38
44
18
26
-1